c colouring generated by benchmark framework
p edge 225 5180
v 1 6
v 2 3
v 3 19
v 4 9
v 5 13
v 6 18
v 7 10
v 8 16
v 9 4
v 10 17
v 11 11
v 12 14
v 13 1
v 14 15
v 15 5
v 16 18
v 17 5
v 18 11
v 19 12
v 20 3
v 21 17
v 22 14
v 23 8
v 24 6
v 25 10
v 26 9
v 27 2
v 28 13
v 29 0
v 30 7
v 31 12
v 32 10
v 33 7
v 34 1
v 35 8
v 36 4
v 37 3
v 38 19
v 39 2
v 40 0
v 41 5
v 42 11
v 43 6
v 44 18
v 45 13
v 46 1
v 47 19
v 48 6
v 49 13
v 50 10
v 51 9
v 52 18
v 53 5
v 54 7
v 55 3
v 56 4
v 57 8
v 58 0
v 59 12
v 60 2
v 61 15
v 62 17
v 63 14
v 64 0
v 65 16
v 66 2
v 67 1
v 68 13
v 69 10
v 70 6
v 71 7
v 72 5
v 73 9
v 74 3
v 75 18
v 76 10
v 77 2
v 78 18
v 79 7
v 80 15
v 81 0
v 82 5
v 83 6
v 84 16
v 85 1
v 86 3
v 87 4
v 88 19
v 89 13
v 90 8
v 91 9
v 92 6
v 93 5
v 94 3
v 95 4
v 96 1
v 97 17
v 98 0
v 99 13
v 100 2
v 101 18
v 102 10
v 103 16
v 104 7
v 105 12
v 106 11
v 107 14
v 108 1
v 109 16
v 110 2
v 111 13
v 112 9
v 113 18
v 114 12
v 115 7
v 116 0
v 117 6
v 118 17
v 119 5
v 120 3
v 121 19
v 122 9
v 123 3
v 124 18
v 125 0
v 126 8
v 127 2
v 128 17
v 129 15
v 130 13
v 131 10
v 132 1
v 133 7
v 134 4
v 135 6
v 136 14
v 137 7
v 138 15
v 139 19
v 140 17
v 141 3
v 142 11
v 143 1
v 144 5
v 145 4
v 146 6
v 147 0
v 148 8
v 149 2
v 150 16
v 151 13
v 152 11
v 153 8
v 154 2
v 155 12
v 156 15
v 157 6
v 158 4
v 159 3
v 160 14
v 161 1
v 162 7
v 163 5
v 164 10
v 165 0
v 166 8
v 167 12
v 168 10
v 169 14
v 170 1
v 171 5
v 172 7
v 173 9
v 174 0
v 175 15
v 176 2
v 177 3
v 178 4
v 179 11
v 180 19
v 181 7
v 182 1
v 183 9
v 184 4
v 185 11
v 186 6
v 187 0
v 188 3
v 189 18
v 190 16
v 191 8
v 192 12
v 193 2
v 194 14
v 195 15
v 196 5
v 197 15
v 198 13
v 199 10
v 200 9
v 201 12
v 202 4
v 203 2
v 204 11
v 205 19
v 206 14
v 207 16
v 208 3
v 209 8
v 210 17
v 211 4
v 212 8
v 213 2
v 214 17
v 215 7
v 216 19
v 217 13
v 218 14
v 219 1
v 220 5
v 221 12
v 222 9
v 223 18
v 224 16
v 225 10
